<number of tasks>
45

<cycle time>
138

<task times>
1 9
2 9
3 10
4 10
5 17
6 17
7 13
8 13
9 20
10 20
11 10
12 11
13 6
14 22
15 11
16 19
17 12
18 3
19 7
20 4
21 55
22 14
23 27
24 29
25 26
26 6
27 5
28 24
29 4
30 5
31 7
32 4
33 15
34 3
35 7
36 9
37 4
38 7
39 5
40 4
41 21
42 12
43 6
44 5
45 5

<precedence relations>
1,3
1,7
2,4
2,8
3,5
4,6
5,9
6,10
7,9
7,14
8,10
8,14
9,41
10,41
11,13
12,13
12,37
13,14
13,15
14,17
14,25
14,29
14,30
14,31
14,32
15,16
15,18
15,23
15,24
16,19
17,26
17,27
18,19
19,20
19,33
20,21
21,22
22,28
23,33
24,33
25,26
26,38
27,28
27,33
28,38
29,41
30,41
31,41
32,41
33,34
33,35
33,36
34,38
35,40
36,38
37,43
38,40
39,41
40,41
41,42
42,44
42,45

<setup times forward>
1,6:4
1,10:4
1,18:4
1,19:2
1,20:2
1,21:2
1,22:1
1,23:4
1,24:4
1,37:2
1,39:2
1,43:1
2,9:4
2,18:4
2,19:2
2,20:2
2,21:2
2,22:1
2,23:4
2,24:4
2,37:2
2,39:2
2,43:1
3,6:4
3,10:4
3,14:4
3,17:2
3,18:4
3,19:2
3,20:2
3,21:2
3,22:1
3,23:4
3,24:4
3,25:2
3,26:1
3,27:2
3,28:1
3,29:2
3,30:2
3,31:2
3,32:2
3,33:1
3,34:1
3,35:1
3,36:1
3,37:2
3,38:1
3,39:2
3,40:1
3,43:1
4,6:4
4,9:4
4,14:4
4,17:2
4,18:4
4,19:2
4,20:2
4,21:2
4,22:1
4,23:4
4,24:4
4,25:2
4,26:1
4,27:2
4,28:1
4,29:2
4,30:2
4,31:2
4,32:2
4,33:1
4,34:1
4,35:1
4,36:1
4,37:2
4,38:1
4,39:2
4,40:1
4,43:1
5,6:4
5,9:4
5,10:4
5,14:4
5,17:2
5,18:4
5,19:2
5,20:2
5,21:2
5,22:1
5,23:4
5,24:4
5,25:2
5,26:1
5,27:2
5,28:1
5,29:2
5,30:2
5,31:2
5,32:2
5,33:1
5,34:1
5,35:1
5,36:1
5,37:2
5,38:1
5,39:2
5,40:1
5,43:1
6,1:4
6,3:4
6,5:4
6,7:4
6,8:4
6,11:4
6,12:4
6,13:4
6,15:4
6,16:4
6,17:6
6,19:6
6,20:6
6,21:6
6,22:3
6,25:6
6,26:3
6,27:6
6,28:3
6,29:6
6,30:6
6,31:6
6,32:6
6,33:3
6,34:3
6,35:3
6,36:3
6,37:6
6,38:3
6,39:6
6,40:3
6,43:3
7,6:4
7,9:4
7,10:4
7,14:4
7,18:4
7,19:2
7,20:2
7,21:2
7,22:1
7,23:4
7,24:4
7,37:2
7,39:2
7,43:1
8,6:4
8,9:4
8,10:4
8,14:4
8,18:4
8,19:2
8,20:2
8,21:2
8,22:1
8,23:4
8,24:4
8,37:2
8,39:2
8,43:1
9,2:4
9,4:4
9,8:4
9,11:4
9,12:4
9,13:4
9,15:4
9,16:4
9,17:6
9,19:6
9,20:6
9,21:6
9,22:3
9,25:6
9,26:3
9,27:6
9,28:3
9,29:6
9,30:6
9,31:6
9,32:6
9,33:3
9,34:3
9,35:3
9,36:3
9,37:6
9,38:3
9,39:6
9,40:3
9,41:3
9,43:3
10,1:4
10,3:4
10,5:4
10,7:4
10,11:4
10,12:4
10,13:4
10,15:4
10,16:4
10,17:6
10,19:6
10,20:6
10,21:6
10,22:3
10,25:6
10,26:3
10,27:6
10,28:3
10,29:6
10,30:6
10,31:6
10,32:6
10,33:3
10,34:3
10,35:3
10,36:3
10,37:6
10,38:3
10,39:6
10,40:3
10,41:3
10,43:3
11,6:4
11,9:4
11,10:4
11,37:2
11,39:2
11,43:1
12,6:4
12,9:4
12,10:4
12,37:2
12,39:2
13,6:4
13,9:4
13,10:4
13,14:4
13,37:2
13,39:2
13,43:1
14,3:4
14,4:4
14,5:4
14,15:4
14,16:4
14,17:6
14,19:6
14,20:6
14,21:6
14,22:3
14,25:6
14,29:6
14,30:6
14,31:6
14,32:6
14,37:6
14,39:6
14,43:3
15,6:4
15,9:4
15,10:4
15,14:4
15,17:2
15,18:4
15,23:4
15,24:4
15,25:2
15,26:1
15,27:2
15,29:2
15,30:2
15,31:2
15,32:2
15,37:2
15,39:2
15,43:1
16,6:4
16,9:4
16,10:4
16,14:4
16,17:2
16,18:4
16,19:2
16,23:4
16,24:4
16,25:2
16,26:1
16,27:2
16,29:2
16,30:2
16,31:2
16,32:2
16,37:2
16,39:2
16,43:1
17,3:2
17,4:2
17,5:2
17,6:6
17,9:6
17,10:6
17,15:2
17,16:2
17,18:6
17,22:3
17,23:6
17,24:6
17,26:3
17,43:3
18,1:4
18,2:4
18,3:4
18,4:4
18,5:4
18,7:4
18,8:4
18,16:4
18,17:6
18,19:6
18,25:6
18,26:3
18,27:6
18,29:6
18,30:6
18,31:6
18,32:6
18,37:6
18,39:6
18,43:3
19,1:2
19,2:2
19,3:2
19,4:2
19,5:2
19,6:6
19,7:2
19,8:2
19,9:6
19,10:6
19,14:6
19,23:6
19,24:6
19,26:3
19,33:3
19,43:3
20,1:2
20,2:2
20,3:2
20,4:2
20,5:2
20,6:6
20,7:2
20,8:2
20,9:6
20,10:6
20,14:6
20,23:6
20,24:6
20,26:3
20,33:3
20,34:3
20,35:3
20,36:3
20,43:3
21,1:2
21,2:2
21,3:2
21,4:2
21,5:2
21,6:6
21,7:2
21,8:2
21,9:6
21,10:6
21,14:6
21,22:3
21,23:6
21,24:6
21,26:3
21,33:3
21,34:3
21,35:3
21,36:3
21,43:3
22,1:1
22,2:1
22,3:1
22,4:1
22,5:1
22,6:3
22,7:1
22,8:1
22,9:3
22,10:3
22,14:3
22,17:3
22,23:3
22,24:3
22,25:3
22,27:3
22,29:3
22,30:3
22,31:3
22,32:3
22,37:3
22,39:3
23,1:4
23,2:4
23,3:4
23,4:4
23,5:4
23,7:4
23,8:4
23,16:4
23,17:6
23,19:6
23,20:6
23,21:6
23,22:3
23,25:6
23,26:3
23,27:6
23,28:3
23,29:6
23,30:6
23,31:6
23,32:6
23,33:3
23,37:6
23,39:6
23,43:3
24,1:4
24,2:4
24,3:4
24,4:4
24,5:4
24,7:4
24,8:4
24,16:4
24,17:6
24,19:6
24,20:6
24,21:6
24,22:3
24,25:6
24,26:3
24,27:6
24,28:3
24,29:6
24,30:6
24,31:6
24,32:6
24,33:3
24,37:6
24,39:6
24,43:3
25,3:2
25,4:2
25,5:2
25,6:6
25,9:6
25,10:6
25,15:2
25,16:2
25,18:6
25,22:3
25,23:6
25,24:6
25,26:3
25,28:3
25,33:3
25,34:3
25,35:3
25,36:3
25,43:3
26,3:1
26,4:1
26,5:1
26,6:3
26,9:3
26,10:3
26,15:1
26,16:1
26,18:3
26,19:3
26,20:3
26,21:3
26,23:3
26,24:3
26,27:3
26,29:3
26,30:3
26,31:3
26,32:3
26,37:3
26,39:3
27,3:2
27,4:2
27,5:2
27,6:6
27,9:6
27,10:6
27,15:2
27,16:2
27,18:6
27,22:3
27,23:6
27,24:6
27,26:3
27,28:3
27,33:3
27,43:3
28,3:1
28,4:1
28,5:1
28,6:3
28,9:3
28,10:3
28,23:3
28,24:3
28,25:3
28,29:3
28,30:3
28,31:3
28,32:3
28,37:3
28,39:3
29,3:2
29,4:2
29,5:2
29,6:6
29,9:6
29,10:6
29,15:2
29,16:2
29,18:6
29,22:3
29,23:6
29,24:6
29,26:3
29,28:3
29,33:3
29,34:3
29,35:3
29,36:3
29,38:3
29,40:3
29,41:3
29,43:3
30,3:2
30,4:2
30,5:2
30,6:6
30,9:6
30,10:6
30,15:2
30,16:2
30,18:6
30,22:3
30,23:6
30,24:6
30,26:3
30,28:3
30,33:3
30,34:3
30,35:3
30,36:3
30,38:3
30,40:3
30,41:3
30,43:3
31,3:2
31,4:2
31,5:2
31,6:6
31,9:6
31,10:6
31,15:2
31,16:2
31,18:6
31,22:3
31,23:6
31,24:6
31,26:3
31,28:3
31,33:3
31,34:3
31,35:3
31,36:3
31,38:3
31,40:3
31,41:3
31,43:3
32,3:2
32,4:2
32,5:2
32,6:6
32,9:6
32,10:6
32,15:2
32,16:2
32,18:6
32,22:3
32,23:6
32,24:6
32,26:3
32,28:3
32,33:3
32,34:3
32,35:3
32,36:3
32,38:3
32,40:3
32,41:3
32,43:3
33,3:1
33,4:1
33,5:1
33,6:3
33,9:3
33,10:3
33,20:3
33,21:3
33,25:3
33,29:3
33,30:3
33,31:3
33,32:3
33,37:3
33,39:3
34,3:1
34,4:1
34,5:1
34,6:3
34,9:3
34,10:3
34,20:3
34,21:3
34,25:3
34,29:3
34,30:3
34,31:3
34,32:3
34,37:3
34,39:3
35,3:1
35,4:1
35,5:1
35,6:3
35,9:3
35,10:3
35,20:3
35,21:3
35,25:3
35,29:3
35,30:3
35,31:3
35,32:3
35,37:3
35,39:3
36,3:1
36,4:1
36,5:1
36,6:3
36,9:3
36,10:3
36,20:3
36,21:3
36,25:3
36,29:3
36,30:3
36,31:3
36,32:3
36,37:3
36,39:3
37,1:2
37,2:2
37,3:2
37,4:2
37,5:2
37,6:6
37,7:2
37,8:2
37,9:6
37,10:6
37,11:2
37,13:2
37,14:6
37,15:2
37,16:2
37,18:6
37,22:3
37,23:6
37,24:6
37,26:3
37,28:3
37,33:3
37,34:3
37,35:3
37,36:3
37,38:3
37,40:3
37,41:3
37,42:3
37,43:3
37,44:3
37,45:3
38,3:1
38,4:1
38,5:1
38,6:3
38,9:3
38,10:3
38,29:3
38,30:3
38,31:3
38,32:3
38,37:3
38,39:3
39,1:2
39,2:2
39,3:2
39,4:2
39,5:2
39,6:6
39,7:2
39,8:2
39,9:6
39,10:6
39,11:2
39,12:2
39,13:2
39,14:6
39,15:2
39,16:2
39,18:6
39,22:3
39,23:6
39,24:6
39,26:3
39,28:3
39,33:3
39,34:3
39,35:3
39,36:3
39,38:3
39,40:3
39,41:3
39,43:3
40,3:1
40,4:1
40,5:1
40,6:3
40,9:3
40,10:3
40,29:3
40,30:3
40,31:3
40,32:3
40,37:3
40,39:3
41,37:3
42,37:3
43,1:1
43,2:1
43,3:1
43,4:1
43,5:1
43,6:3
43,7:1
43,8:1
43,9:3
43,10:3
43,11:1
43,13:1
43,14:3
43,15:1
43,16:1
43,17:3
43,18:3
43,19:3
43,20:3
43,21:3
43,23:3
43,24:3
43,25:3
43,27:3
43,29:3
43,30:3
43,31:3
43,32:3
43,39:3
44,37:3
45,37:3

<setup times backward>
1,19:2
1,20:2
1,21:2
1,37:2
1,39:2
2,19:2
2,20:2
2,21:2
2,37:2
2,39:2
3,17:2
3,19:2
3,20:2
3,21:2
3,25:2
3,27:2
3,29:2
3,30:2
3,31:2
3,32:2
3,37:2
3,39:2
4,17:2
4,19:2
4,20:2
4,21:2
4,25:2
4,27:2
4,29:2
4,30:2
4,31:2
4,32:2
4,37:2
4,39:2
5,17:2
5,19:2
5,20:2
5,21:2
5,25:2
5,27:2
5,29:2
5,30:2
5,31:2
5,32:2
5,37:2
5,39:2
6,1:4
6,2:4
6,3:4
6,4:4
6,5:4
6,7:4
6,8:4
6,11:4
6,12:4
6,13:4
6,15:4
6,16:4
6,17:6
6,19:6
6,20:6
6,21:6
6,22:3
6,25:6
6,26:3
6,27:6
6,28:3
6,29:6
6,30:6
6,31:6
6,32:6
6,33:3
6,34:3
6,35:3
6,36:3
6,37:6
6,38:3
6,39:6
6,40:3
6,43:3
7,19:2
7,20:2
7,21:2
7,37:2
7,39:2
8,19:2
8,20:2
8,21:2
8,37:2
8,39:2
9,1:4
9,2:4
9,3:4
9,4:4
9,5:4
9,7:4
9,8:4
9,11:4
9,12:4
9,13:4
9,15:4
9,16:4
9,17:6
9,19:6
9,20:6
9,21:6
9,22:3
9,25:6
9,26:3
9,27:6
9,28:3
9,29:6
9,30:6
9,31:6
9,32:6
9,33:3
9,34:3
9,35:3
9,36:3
9,37:6
9,38:3
9,39:6
9,40:3
9,43:3
10,1:4
10,2:4
10,3:4
10,4:4
10,5:4
10,7:4
10,8:4
10,11:4
10,12:4
10,13:4
10,15:4
10,16:4
10,17:6
10,19:6
10,20:6
10,21:6
10,22:3
10,25:6
10,26:3
10,27:6
10,28:3
10,29:6
10,30:6
10,31:6
10,32:6
10,33:3
10,34:3
10,35:3
10,36:3
10,37:6
10,38:3
10,39:6
10,40:3
10,43:3
11,37:2
11,39:2
12,39:2
13,37:2
13,39:2
14,1:4
14,2:4
14,3:4
14,4:4
14,5:4
14,7:4
14,8:4
14,11:4
14,12:4
14,13:4
14,15:4
14,16:4
14,19:6
14,20:6
14,21:6
14,22:3
14,37:6
14,39:6
14,43:3
15,17:2
15,25:2
15,27:2
15,29:2
15,30:2
15,31:2
15,32:2
15,37:2
15,39:2
16,17:2
16,25:2
16,27:2
16,29:2
16,30:2
16,31:2
16,32:2
16,37:2
16,39:2
18,1:4
18,2:4
18,3:4
18,4:4
18,5:4
18,7:4
18,8:4
18,11:4
18,12:4
18,13:4
18,15:4
18,16:4
18,17:6
18,25:6
18,26:3
18,27:6
18,29:6
18,30:6
18,31:6
18,32:6
18,37:6
18,39:6
18,43:3
22,1:1
22,2:1
22,3:1
22,4:1
22,5:1
22,7:1
22,8:1
22,11:1
22,12:1
22,13:1
22,15:1
22,16:1
22,17:3
22,19:3
22,20:3
22,21:3
22,25:3
22,27:3
22,29:3
22,30:3
22,31:3
22,32:3
22,37:3
22,39:3
23,1:4
23,2:4
23,3:4
23,4:4
23,5:4
23,7:4
23,8:4
23,11:4
23,12:4
23,13:4
23,15:4
23,16:4
23,17:6
23,19:6
23,20:6
23,21:6
23,22:3
23,25:6
23,26:3
23,27:6
23,28:3
23,29:6
23,30:6
23,31:6
23,32:6
23,37:6
23,39:6
23,43:3
24,1:4
24,2:4
24,3:4
24,4:4
24,5:4
24,7:4
24,8:4
24,11:4
24,12:4
24,13:4
24,15:4
24,16:4
24,17:6
24,19:6
24,20:6
24,21:6
24,22:3
24,25:6
24,26:3
24,27:6
24,28:3
24,29:6
24,30:6
24,31:6
24,32:6
24,37:6
24,39:6
24,43:3
26,1:1
26,2:1
26,3:1
26,4:1
26,5:1
26,7:1
26,8:1
26,11:1
26,12:1
26,13:1
26,15:1
26,16:1
26,17:3
26,19:3
26,20:3
26,21:3
26,25:3
26,27:3
26,29:3
26,30:3
26,31:3
26,32:3
26,37:3
26,39:3
28,1:1
28,2:1
28,3:1
28,4:1
28,5:1
28,7:1
28,8:1
28,11:1
28,12:1
28,13:1
28,15:1
28,16:1
28,17:3
28,19:3
28,20:3
28,21:3
28,25:3
28,27:3
28,29:3
28,30:3
28,31:3
28,32:3
28,37:3
28,39:3
33,1:1
33,2:1
33,3:1
33,4:1
33,5:1
33,7:1
33,8:1
33,11:1
33,12:1
33,13:1
33,15:1
33,16:1
33,17:3
33,19:3
33,20:3
33,21:3
33,25:3
33,27:3
33,29:3
33,30:3
33,31:3
33,32:3
33,37:3
33,39:3
34,1:1
34,2:1
34,3:1
34,4:1
34,5:1
34,7:1
34,8:1
34,11:1
34,12:1
34,13:1
34,15:1
34,16:1
34,17:3
34,19:3
34,20:3
34,21:3
34,25:3
34,27:3
34,29:3
34,30:3
34,31:3
34,32:3
34,37:3
34,39:3
35,1:1
35,2:1
35,3:1
35,4:1
35,5:1
35,7:1
35,8:1
35,11:1
35,12:1
35,13:1
35,15:1
35,16:1
35,17:3
35,19:3
35,20:3
35,21:3
35,25:3
35,27:3
35,29:3
35,30:3
35,31:3
35,32:3
35,37:3
35,39:3
36,1:1
36,2:1
36,3:1
36,4:1
36,5:1
36,7:1
36,8:1
36,11:1
36,12:1
36,13:1
36,15:1
36,16:1
36,17:3
36,19:3
36,20:3
36,21:3
36,25:3
36,27:3
36,29:3
36,30:3
36,31:3
36,32:3
36,37:3
36,39:3
38,1:1
38,2:1
38,3:1
38,4:1
38,5:1
38,7:1
38,8:1
38,11:1
38,12:1
38,13:1
38,15:1
38,16:1
38,17:3
38,19:3
38,20:3
38,21:3
38,25:3
38,27:3
38,29:3
38,30:3
38,31:3
38,32:3
38,37:3
38,39:3
40,1:1
40,2:1
40,3:1
40,4:1
40,5:1
40,7:1
40,8:1
40,11:1
40,12:1
40,13:1
40,15:1
40,16:1
40,17:3
40,19:3
40,20:3
40,21:3
40,25:3
40,27:3
40,29:3
40,30:3
40,31:3
40,32:3
40,37:3
40,39:3
41,1:1
41,2:1
41,3:1
41,4:1
41,5:1
41,7:1
41,8:1
41,11:1
41,12:1
41,13:1
41,15:1
41,16:1
41,17:3
41,19:3
41,20:3
41,21:3
41,25:3
41,27:3
41,29:3
41,30:3
41,31:3
41,32:3
41,37:3
41,39:3
42,1:1
42,2:1
42,3:1
42,4:1
42,5:1
42,7:1
42,8:1
42,11:1
42,12:1
42,13:1
42,15:1
42,16:1
42,17:3
42,19:3
42,20:3
42,21:3
42,25:3
42,27:3
42,29:3
42,30:3
42,31:3
42,32:3
42,37:3
42,39:3
43,1:1
43,2:1
43,3:1
43,4:1
43,5:1
43,7:1
43,8:1
43,11:1
43,12:1
43,13:1
43,15:1
43,16:1
43,17:3
43,19:3
43,20:3
43,21:3
43,25:3
43,27:3
43,29:3
43,30:3
43,31:3
43,32:3
43,37:3
43,39:3
44,1:1
44,2:1
44,3:1
44,4:1
44,5:1
44,7:1
44,8:1
44,11:1
44,12:1
44,13:1
44,15:1
44,16:1
44,17:3
44,19:3
44,20:3
44,21:3
44,25:3
44,27:3
44,29:3
44,30:3
44,31:3
44,32:3
44,37:3
44,39:3
45,1:1
45,2:1
45,3:1
45,4:1
45,5:1
45,7:1
45,8:1
45,11:1
45,12:1
45,13:1
45,15:1
45,16:1
45,17:3
45,19:3
45,20:3
45,21:3
45,25:3
45,27:3
45,29:3
45,30:3
45,31:3
45,32:3
45,37:3
45,39:3

<end>

<optimal SALBP-1 value>
4


<rand seed>
467321153

